\ENCODING=ISO-8859-1
\Problem name: IloCplex

Maximize
 obj1: z#147
Subject To
 c1:   q_0#0 <= 2
 c2:   q_1#1 <= 6
 c3:   q_2#2 <= 3
 c4:   x_0_2#3 + x_0_1#4 >= 1
 c5:   - 1000 hap_1_0_0#5 + ap_0_0#6 <= 0
 c6:   x_0_2#3 + x_0_1#4 + 2 hap_1_0_0#5 <= 3
 c7:   - x_0_1#4 - x_0_0#7 >= -1
 c8:   - 1000 han_2_0_0#8 + an_0_0#9 <= 0
 c9:   - x_0_1#4 - x_0_0#7 + 2 han_2_0_0#8 <= 1
 c10:  x_0_2#10 + x_0_1#11 >= 1
 c11:  - 1000 hap_1_1_0#12 + ap_1_0#13 <= 0
 c12:  x_0_2#10 + x_0_1#11 + 2 hap_1_1_0#12 <= 3
 c13:  - x_0_1#11 - x_0_0#14 >= -1
 c14:  - 1000 han_2_1_0#15 + an_1_0#16 <= 0
 c15:  - x_0_1#11 - x_0_0#14 + 2 han_2_1_0#15 <= 1
 c16:  x_0_2#17 + x_0_1#18 >= 1
 c17:  - 1000 hap_1_2_0#19 + ap_2_0#20 <= 0
 c18:  x_0_2#17 + x_0_1#18 + 2 hap_1_2_0#19 <= 3
 c19:  - x_0_1#18 - x_0_0#21 >= -1
 c20:  - 1000 han_2_2_0#22 + an_2_0#23 <= 0
 c21:  - x_0_1#18 - x_0_0#21 + 2 han_2_2_0#22 <= 1
 c22:  x_0_2#24 + x_0_1#25 >= 1
 c23:  - 1000 hap_1_3_0#26 + ap_3_0#27 <= 0
 c24:  x_0_2#24 + x_0_1#25 + 2 hap_1_3_0#26 <= 3
 c25:  - x_0_1#25 - x_0_0#28 >= -1
 c26:  - 1000 han_2_3_0#29 + an_3_0#30 <= 0
 c27:  - x_0_1#25 - x_0_0#28 + 2 han_2_3_0#29 <= 1
 c28:  x_0_2#31 + x_0_1#32 >= 1
 c29:  - 1000 hap_1_4_0#33 + ap_4_0#34 <= 0
 c30:  x_0_2#31 + x_0_1#32 + 2 hap_1_4_0#33 <= 3
 c31:  - x_0_1#32 - x_0_0#35 >= -1
 c32:  - 1000 han_2_4_0#36 + an_4_0#37 <= 0
 c33:  - x_0_1#32 - x_0_0#35 + 2 han_2_4_0#36 <= 1
 c34:  x_0_2#38 + x_0_1#39 >= 1
 c35:  - 1000 hap_1_5_0#40 + ap_5_0#41 <= 0
 c36:  x_0_2#38 + x_0_1#39 + 2 hap_1_5_0#40 <= 3
 c37:  - x_0_1#39 - x_0_0#42 >= -1
 c38:  - 1000 han_2_5_0#43 + an_5_0#44 <= 0
 c39:  - x_0_1#39 - x_0_0#42 + 2 han_2_5_0#43 <= 1
 c40:  x_0_2#45 + x_0_1#46 >= 1
 c41:  - 1000 hap_1_6_0#47 + ap_6_0#48 <= 0
 c42:  x_0_2#45 + x_0_1#46 + 2 hap_1_6_0#47 <= 3
 c43:  - x_0_1#46 - x_0_0#49 >= -1
 c44:  - 1000 han_2_6_0#50 + an_6_0#51 <= 0
 c45:  - x_0_1#46 - x_0_0#49 + 2 han_2_6_0#50 <= 1
 c46:  x_0_2#52 + x_0_1#53 >= 1
 c47:  - 1000 hap_1_7_0#54 + ap_7_0#55 <= 0
 c48:  x_0_2#52 + x_0_1#53 + 2 hap_1_7_0#54 <= 3
 c49:  - x_0_1#53 - x_0_0#56 >= -1
 c50:  - 1000 han_2_7_0#57 + an_7_0#58 <= 0
 c51:  - x_0_1#53 - x_0_0#56 + 2 han_2_7_0#57 <= 1
 c52:  x_0_2#59 + x_0_1#60 >= 1
 c53:  - 1000 hap_1_8_0#61 + ap_8_0#62 <= 0
 c54:  x_0_2#59 + x_0_1#60 + 2 hap_1_8_0#61 <= 3
 c55:  - x_0_1#60 - x_0_0#63 >= -1
 c56:  - 1000 han_2_8_0#64 + an_8_0#65 <= 0
 c57:  - x_0_1#60 - x_0_0#63 + 2 han_2_8_0#64 <= 1
 c58:  x_0_2#66 + x_0_1#67 >= 1
 c59:  - 1000 hap_1_9_0#68 + ap_9_0#69 <= 0
 c60:  x_0_2#66 + x_0_1#67 + 2 hap_1_9_0#68 <= 3
 c61:  - x_0_1#67 - x_0_0#70 >= -1
 c62:  - 1000 han_2_9_0#71 + an_9_0#72 <= 0
 c63:  - x_0_1#67 - x_0_0#70 + 2 han_2_9_0#71 <= 1
 c64:  x_0_2#73 + x_0_1#74 >= 1
 c65:  - 1000 hap_1_10_0#75 + ap_10_0#76 <= 0
 c66:  x_0_2#73 + x_0_1#74 + 2 hap_1_10_0#75 <= 3
 c67:  - x_0_1#74 - x_0_0#77 >= -1
 c68:  - 1000 han_2_10_0#78 + an_10_0#79 <= 0
 c69:  - x_0_1#74 - x_0_0#77 + 2 han_2_10_0#78 <= 1
 c70:  x_0_2#80 + x_0_1#81 >= 1
 c71:  - 1000 hap_1_11_0#82 + ap_11_0#83 <= 0
 c72:  x_0_2#80 + x_0_1#81 + 2 hap_1_11_0#82 <= 3
 c73:  - x_0_1#81 - x_0_0#84 >= -1
 c74:  - 1000 han_2_11_0#85 + an_11_0#86 <= 0
 c75:  - x_0_1#81 - x_0_0#84 + 2 han_2_11_0#85 <= 1
 c76:  - x_0_2#3 + x_0_0#7 >= 0
 c77:  - 1000 hb_0_0_1#87 + b_0_0_1#88 <= 0
 c78:  - x_0_2#3 + x_0_0#7 + 2 hb_0_0_1#87 <= 2
 c79:  - x_0_2#10 + x_0_0#14 >= 0
 c80:  - 1000 hb_1_0_1#89 + b_1_0_1#90 <= 0
 c81:  - x_0_2#10 + x_0_0#14 + 2 hb_1_0_1#89 <= 2
 c82:  - x_0_2#17 + x_0_0#21 >= 0
 c83:  - 1000 hb_2_0_1#91 + b_2_0_1#92 <= 0
 c84:  - x_0_2#17 + x_0_0#21 + 2 hb_2_0_1#91 <= 2
 c85:  - x_0_2#24 + x_0_0#28 >= 0
 c86:  - 1000 hb_3_0_1#93 + b_3_0_1#94 <= 0
 c87:  - x_0_2#24 + x_0_0#28 + 2 hb_3_0_1#93 <= 2
 c88:  - x_0_2#31 + x_0_0#35 >= 0
 c89:  - 1000 hb_4_0_1#95 + b_4_0_1#96 <= 0
 c90:  - x_0_2#31 + x_0_0#35 + 2 hb_4_0_1#95 <= 2
 c91:  - x_0_2#38 + x_0_0#42 >= 0
 c92:  - 1000 hb_5_0_1#97 + b_5_0_1#98 <= 0
 c93:  - x_0_2#38 + x_0_0#42 + 2 hb_5_0_1#97 <= 2
 c94:  - x_0_2#45 + x_0_0#49 >= 0
 c95:  - 1000 hb_6_0_1#99 + b_6_0_1#100 <= 0
 c96:  - x_0_2#45 + x_0_0#49 + 2 hb_6_0_1#99 <= 2
 c97:  - x_0_2#52 + x_0_0#56 >= 0
 c98:  - 1000 hb_7_0_1#101 + b_7_0_1#102 <= 0
 c99:  - x_0_2#52 + x_0_0#56 + 2 hb_7_0_1#101 <= 2
 c100: - x_0_2#59 + x_0_0#63 >= 0
 c101: - 1000 hb_8_0_1#103 + b_8_0_1#104 <= 0
 c102: - x_0_2#59 + x_0_0#63 + 2 hb_8_0_1#103 <= 2
 c103: - x_0_2#66 + x_0_0#70 >= 0
 c104: - 1000 hb_9_0_1#105 + b_9_0_1#106 <= 0
 c105: - x_0_2#66 + x_0_0#70 + 2 hb_9_0_1#105 <= 2
 c106: - x_0_2#73 + x_0_0#77 >= 0
 c107: - 1000 hb_10_0_1#107 + b_10_0_1#108 <= 0
 c108: - x_0_2#73 + x_0_0#77 + 2 hb_10_0_1#107 <= 2
 c109: - x_0_2#80 + x_0_0#84 >= 0
 c110: - 1000 hb_11_0_1#109 + b_11_0_1#110 <= 0
 c111: - x_0_2#80 + x_0_0#84 + 2 hb_11_0_1#109 <= 2
 c112: - q_0#0 - an_0_0#9 + b_0_0_1#88 <= 1
 c113: x_0_0#7 - 2 hdu_0_0_0#111 <= 0
 c114: q_0#0 + an_0_0#9 - b_0_0_1#88 + 1000 hdu_0_0_0#111 <= 999
 c115: - q_1#1 + ap_0_0#6 - an_0_0#9 <= 0
 c116: x_0_1#4 - 2 hdu_0_0_1#112 <= 0
 c117: q_1#1 - ap_0_0#6 + an_0_0#9 + 1000 hdu_0_0_1#112 <= 1000
 c118: - q_2#2 + ap_0_0#6 - b_0_0_1#88 <= 0.00000999999994943934
 c119: x_0_2#3 - 2 hdu_0_0_2#113 <= 0
 c120: q_2#2 - ap_0_0#6 + b_0_0_1#88 + 1000 hdu_0_0_2#113 <= 999.99999
 c121: - q_0#0 - an_1_0#16 + b_1_0_1#90 <= 0.493337022815487
 c122: x_0_0#14 - 2 hdu_1_0_0#114 <= 0
 c123: q_0#0 + an_1_0#16 - b_1_0_1#90 + 1000 hdu_1_0_0#114 <= 999.506662977185
 c124: - q_1#1 + ap_1_0#13 - an_1_0#16 <= 1
 c125: x_0_1#11 - 2 hdu_1_0_1#115 <= 0
 c126: q_1#1 - ap_1_0#13 + an_1_0#16 + 1000 hdu_1_0_1#115 <= 999
 c127: - q_2#2 + ap_1_0#13 - b_1_0_1#90 <= 0.879288674096587
 c128: x_0_2#10 - 2 hdu_1_0_2#116 <= 0
 c129: q_2#2 - ap_1_0#13 + b_1_0_1#90 + 1000 hdu_1_0_2#116 <= 999.120711325903
 c130: - q_0#0 - an_2_0#23 + b_2_0_1#92 <= 0
 c131: x_0_0#21 - 2 hdu_2_0_0#117 <= 0
 c132: q_0#0 + an_2_0#23 - b_2_0_1#92 + 1000 hdu_2_0_0#117 <= 1000
 c133: - q_1#1 + ap_2_0#20 - an_2_0#23 <= 0.940124388827133
 c134: x_0_1#18 - 2 hdu_2_0_1#118 <= 0
 c135: q_1#1 - ap_2_0#20 + an_2_0#23 + 1000 hdu_2_0_1#118 <= 999.059875611173
 c136: - q_2#2 + ap_2_0#20 - b_2_0_1#92 <= 0.413191653659048
 c137: x_0_2#17 - 2 hdu_2_0_2#119 <= 0
 c138: q_2#2 - ap_2_0#20 + b_2_0_1#92 + 1000 hdu_2_0_2#119 <= 999.586808346341
 c139: - q_0#0 - an_3_0#30 + b_3_0_1#94 <= 0.372635696912059
 c140: x_0_0#28 - 2 hdu_3_0_0#120 <= 0
 c141: q_0#0 + an_3_0#30 - b_3_0_1#94 + 1000 hdu_3_0_0#120 <= 999.627364303088
 c142: - q_1#1 + ap_3_0#27 - an_3_0#30 <= 0
 c143: x_0_1#25 - 2 hdu_3_0_1#121 <= 0
 c144: q_1#1 - ap_3_0#27 + an_3_0#30 + 1000 hdu_3_0_1#121 <= 1000
 c145: - q_2#2 + ap_3_0#27 - b_3_0_1#94 <= 0
 c146: x_0_2#24 - 2 hdu_3_0_2#122 <= 0
 c147: q_2#2 - ap_3_0#27 + b_3_0_1#94 + 1000 hdu_3_0_2#122 <= 1000
 c148: - q_0#0 - an_4_0#37 + b_4_0_1#96 <= 0
 c149: x_0_0#35 - 2 hdu_4_0_0#123 <= 0
 c150: q_0#0 + an_4_0#37 - b_4_0_1#96 + 1000 hdu_4_0_0#123 <= 1000
 c151: - q_1#1 + ap_4_0#34 - an_4_0#37 <= 0.526922735168139
 c152: x_0_1#32 - 2 hdu_4_0_1#124 <= 0
 c153: q_1#1 - ap_4_0#34 + an_4_0#37 + 1000 hdu_4_0_1#124 <= 999.473077264832
 c154: - q_2#2 + ap_4_0#34 - b_4_0_1#96 <= 0
 c155: x_0_2#31 - 2 hdu_4_0_2#125 <= 0
 c156: q_2#2 - ap_4_0#34 + b_4_0_1#96 + 1000 hdu_4_0_2#125 <= 1000
 c157: - q_0#0 - an_5_0#44 + b_5_0_1#98 <= 0.619478655757788
 c158: x_0_0#42 - 2 hdu_5_0_0#126 <= 0
 c159: q_0#0 + an_5_0#44 - b_5_0_1#98 + 1000 hdu_5_0_0#126 <= 999.380521344242
 c160: - q_1#1 + ap_5_0#41 - an_5_0#44 <= 1
 c161: x_0_1#39 - 2 hdu_5_0_1#127 <= 0
 c162: q_1#1 - ap_5_0#41 + an_5_0#44 + 1000 hdu_5_0_1#127 <= 999
 c163: - q_2#2 + ap_5_0#41 - b_5_0_1#98 <= 1.87093297897861
 c164: x_0_2#38 - 2 hdu_5_0_2#128 <= 0
 c165: q_2#2 - ap_5_0#41 + b_5_0_1#98 + 1000 hdu_5_0_2#128 <= 998.129067021021
 c166: - q_0#0 - an_6_0#51 + b_6_0_1#100 <= 0.759384594013126
 c167: x_0_0#49 - 2 hdu_6_0_0#129 <= 0
 c168: q_0#0 + an_6_0#51 - b_6_0_1#100 + 1000 hdu_6_0_0#129 <= 999.240615405987
 c169: - q_1#1 + ap_6_0#48 - an_6_0#51 <= 1
 c170: x_0_1#46 - 2 hdu_6_0_1#130 <= 0
 c171: q_1#1 - ap_6_0#48 + an_6_0#51 + 1000 hdu_6_0_1#130 <= 999
 c172: - q_2#2 + ap_6_0#48 - b_6_0_1#100 <= 2.15607002257757
 c173: x_0_2#45 - 2 hdu_6_0_2#131 <= 0
 c174: q_2#2 - ap_6_0#48 + b_6_0_1#100 + 1000 hdu_6_0_2#131 <= 997.843929977422
 c175: - q_0#0 - an_7_0#58 + b_7_0_1#102 <= 0.668687791130799
 c176: x_0_0#56 - 2 hdu_7_0_0#132 <= 0
 c177: q_0#0 + an_7_0#58 - b_7_0_1#102 + 1000 hdu_7_0_0#132 <= 999.331312208869
 c178: - q_1#1 + ap_7_0#55 - an_7_0#58 <= 1
 c179: x_0_1#53 - 2 hdu_7_0_1#133 <= 0
 c180: q_1#1 - ap_7_0#55 + an_7_0#58 + 1000 hdu_7_0_1#133 <= 999
 c181: - q_2#2 + ap_7_0#55 - b_7_0_1#102 <= 2.31782387121521
 c182: x_0_2#52 - 2 hdu_7_0_2#134 <= 0
 c183: q_2#2 - ap_7_0#55 + b_7_0_1#102 + 1000 hdu_7_0_2#134 <= 997.682176128785
 c184: - q_0#0 - an_8_0#65 + b_8_0_1#104 <= 0.35586519451792
 c185: x_0_0#63 - 2 hdu_8_0_0#135 <= 0
 c186: q_0#0 + an_8_0#65 - b_8_0_1#104 + 1000 hdu_8_0_0#135 <= 999.644134805482
 c187: - q_1#1 + ap_8_0#62 - an_8_0#65 <= 1
 c188: x_0_1#60 - 2 hdu_8_0_1#136 <= 0
 c189: q_1#1 - ap_8_0#62 + an_8_0#65 + 1000 hdu_8_0_1#136 <= 999
 c190: - q_2#2 + ap_8_0#62 - b_8_0_1#104 <= 2.61841274503357
 c191: x_0_2#59 - 2 hdu_8_0_2#137 <= 0
 c192: q_2#2 - ap_8_0#62 + b_8_0_1#104 + 1000 hdu_8_0_2#137 <= 997.381587254966
 c193: - q_0#0 - an_9_0#72 + b_9_0_1#106 <= 0.0548195725709413
 c194: x_0_0#70 - 2 hdu_9_0_0#138 <= 0
 c195: q_0#0 + an_9_0#72 - b_9_0_1#106 + 1000 hdu_9_0_0#138 <= 999.945180427429
 c196: - q_1#1 + ap_9_0#69 - an_9_0#72 <= 0.699671427207677
 c197: x_0_1#67 - 2 hdu_9_0_1#139 <= 0
 c198: q_1#1 - ap_9_0#69 + an_9_0#72 + 1000 hdu_9_0_1#139 <= 999.300328572792
 c199: - q_2#2 + ap_9_0#69 - b_9_0_1#106 <= 4
 c200: x_0_2#66 - 2 hdu_9_0_2#140 <= 0
 c201: q_2#2 - ap_9_0#69 + b_9_0_1#106 + 1000 hdu_9_0_2#140 <= 996
 c202: - q_0#0 - an_10_0#79 + b_10_0_1#108 <= 0.882805693144714
 c203: x_0_0#77 - 2 hdu_10_0_0#141 <= 0
 c204: q_0#0 + an_10_0#79 - b_10_0_1#108 + 1000 hdu_10_0_0#141
       <= 999.117194306855
 c205: - q_1#1 + ap_10_0#76 - an_10_0#79 <= 0.727631753211162
 c206: x_0_1#74 - 2 hdu_10_0_1#142 <= 0
 c207: q_1#1 - ap_10_0#76 + an_10_0#79 + 1000 hdu_10_0_1#142
       <= 999.272368246789
 c208: - q_2#2 + ap_10_0#76 - b_10_0_1#108 <= 4
 c209: x_0_2#73 - 2 hdu_10_0_2#143 <= 0
 c210: q_2#2 - ap_10_0#76 + b_10_0_1#108 + 1000 hdu_10_0_2#143 <= 996
 c211: - q_0#0 - an_11_0#86 + b_11_0_1#110 <= 0
 c212: x_0_0#84 - 2 hdu_11_0_0#144 <= 0
 c213: q_0#0 + an_11_0#86 - b_11_0_1#110 + 1000 hdu_11_0_0#144 <= 1000
 c214: - q_1#1 + ap_11_0#83 - an_11_0#86 <= 0.526922735168139
 c215: x_0_1#81 - 2 hdu_11_0_1#145 <= 0
 c216: q_1#1 - ap_11_0#83 + an_11_0#86 + 1000 hdu_11_0_1#145
       <= 999.473077264832
 c217: - q_2#2 + ap_11_0#83 - b_11_0_1#110 <= 0
 c218: x_0_2#80 - 2 hdu_11_0_2#146 <= 0
 c219: q_2#2 - ap_11_0#83 + b_11_0_1#110 + 1000 hdu_11_0_2#146 <= 1000
 c220: 1.00000999999995 x_0_2#3 + x_0_1#4 - ap_0_0#6 + 2 x_0_0#7 + an_0_0#9
       + z#147 <= 0
 c221: 1.87928867409659 x_0_2#10 + 2 x_0_1#11 - ap_1_0#13
       + 1.49333702281549 x_0_0#14 + an_1_0#16 + z#147 <= 0
 c222: 1.41319165365905 x_0_2#17 + 1.94012438882713 x_0_1#18 - ap_2_0#20
       + x_0_0#21 + an_2_0#23 + z#147 <= 0
 c223: x_0_2#24 + x_0_1#25 - ap_3_0#27 + 1.37263569691206 x_0_0#28 + an_3_0#30
       + z#147 <= 0
 c224: x_0_2#31 + 1.52692273516814 x_0_1#32 - ap_4_0#34 + x_0_0#35 + an_4_0#37
       + z#147 <= 0
 c225: 2.87093297897861 x_0_2#38 + 2 x_0_1#39 - ap_5_0#41
       + 1.61947865575779 x_0_0#42 + an_5_0#44 + z#147 <= 0
 c226: 3.15607002257757 x_0_2#45 + 2 x_0_1#46 - ap_6_0#48
       + 1.75938459401313 x_0_0#49 + an_6_0#51 + z#147 <= 0
 c227: 3.31782387121521 x_0_2#52 + 2 x_0_1#53 - ap_7_0#55
       + 1.6686877911308 x_0_0#56 + an_7_0#58 + z#147 <= 0
 c228: 3.61841274503357 x_0_2#59 + 2 x_0_1#60 - ap_8_0#62
       + 1.35586519451792 x_0_0#63 + an_8_0#65 + z#147 <= 0
 c229: 5 x_0_2#66 + 1.69967142720768 x_0_1#67 - ap_9_0#69
       + 1.05481957257094 x_0_0#70 + an_9_0#72 + z#147 <= 0
 c230: 5 x_0_2#73 + 1.72763175321116 x_0_1#74 - ap_10_0#76
       + 1.88280569314471 x_0_0#77 + an_10_0#79 + z#147 <= 0
 c231: x_0_2#80 + 1.52692273516814 x_0_1#81 - ap_11_0#83 + x_0_0#84
       + an_11_0#86 + z#147 <= 0
Bounds
 0 <= x_0_2#3 <= 1
 0 <= x_0_1#4 <= 1
 0 <= hap_1_0_0#5 <= 1
 0 <= x_0_0#7 <= 1
 0 <= han_2_0_0#8 <= 1
 0 <= x_0_2#10 <= 1
 0 <= x_0_1#11 <= 1
 0 <= hap_1_1_0#12 <= 1
 0 <= x_0_0#14 <= 1
 0 <= han_2_1_0#15 <= 1
 0 <= x_0_2#17 <= 1
 0 <= x_0_1#18 <= 1
 0 <= hap_1_2_0#19 <= 1
 0 <= x_0_0#21 <= 1
 0 <= han_2_2_0#22 <= 1
 0 <= x_0_2#24 <= 1
 0 <= x_0_1#25 <= 1
 0 <= hap_1_3_0#26 <= 1
 0 <= x_0_0#28 <= 1
 0 <= han_2_3_0#29 <= 1
 0 <= x_0_2#31 <= 1
 0 <= x_0_1#32 <= 1
 0 <= hap_1_4_0#33 <= 1
 0 <= x_0_0#35 <= 1
 0 <= han_2_4_0#36 <= 1
 0 <= x_0_2#38 <= 1
 0 <= x_0_1#39 <= 1
 0 <= hap_1_5_0#40 <= 1
 0 <= x_0_0#42 <= 1
 0 <= han_2_5_0#43 <= 1
 0 <= x_0_2#45 <= 1
 0 <= x_0_1#46 <= 1
 0 <= hap_1_6_0#47 <= 1
 0 <= x_0_0#49 <= 1
 0 <= han_2_6_0#50 <= 1
 0 <= x_0_2#52 <= 1
 0 <= x_0_1#53 <= 1
 0 <= hap_1_7_0#54 <= 1
 0 <= x_0_0#56 <= 1
 0 <= han_2_7_0#57 <= 1
 0 <= x_0_2#59 <= 1
 0 <= x_0_1#60 <= 1
 0 <= hap_1_8_0#61 <= 1
 0 <= x_0_0#63 <= 1
 0 <= han_2_8_0#64 <= 1
 0 <= x_0_2#66 <= 1
 0 <= x_0_1#67 <= 1
 0 <= hap_1_9_0#68 <= 1
 0 <= x_0_0#70 <= 1
 0 <= han_2_9_0#71 <= 1
 0 <= x_0_2#73 <= 1
 0 <= x_0_1#74 <= 1
 0 <= hap_1_10_0#75 <= 1
 0 <= x_0_0#77 <= 1
 0 <= han_2_10_0#78 <= 1
 0 <= x_0_2#80 <= 1
 0 <= x_0_1#81 <= 1
 0 <= hap_1_11_0#82 <= 1
 0 <= x_0_0#84 <= 1
 0 <= han_2_11_0#85 <= 1
 0 <= hb_0_0_1#87 <= 1
 0 <= hb_1_0_1#89 <= 1
 0 <= hb_2_0_1#91 <= 1
 0 <= hb_3_0_1#93 <= 1
 0 <= hb_4_0_1#95 <= 1
 0 <= hb_5_0_1#97 <= 1
 0 <= hb_6_0_1#99 <= 1
 0 <= hb_7_0_1#101 <= 1
 0 <= hb_8_0_1#103 <= 1
 0 <= hb_9_0_1#105 <= 1
 0 <= hb_10_0_1#107 <= 1
 0 <= hb_11_0_1#109 <= 1
 0 <= hdu_0_0_0#111 <= 1
 0 <= hdu_0_0_1#112 <= 1
 0 <= hdu_0_0_2#113 <= 1
 0 <= hdu_1_0_0#114 <= 1
 0 <= hdu_1_0_1#115 <= 1
 0 <= hdu_1_0_2#116 <= 1
 0 <= hdu_2_0_0#117 <= 1
 0 <= hdu_2_0_1#118 <= 1
 0 <= hdu_2_0_2#119 <= 1
 0 <= hdu_3_0_0#120 <= 1
 0 <= hdu_3_0_1#121 <= 1
 0 <= hdu_3_0_2#122 <= 1
 0 <= hdu_4_0_0#123 <= 1
 0 <= hdu_4_0_1#124 <= 1
 0 <= hdu_4_0_2#125 <= 1
 0 <= hdu_5_0_0#126 <= 1
 0 <= hdu_5_0_1#127 <= 1
 0 <= hdu_5_0_2#128 <= 1
 0 <= hdu_6_0_0#129 <= 1
 0 <= hdu_6_0_1#130 <= 1
 0 <= hdu_6_0_2#131 <= 1
 0 <= hdu_7_0_0#132 <= 1
 0 <= hdu_7_0_1#133 <= 1
 0 <= hdu_7_0_2#134 <= 1
 0 <= hdu_8_0_0#135 <= 1
 0 <= hdu_8_0_1#136 <= 1
 0 <= hdu_8_0_2#137 <= 1
 0 <= hdu_9_0_0#138 <= 1
 0 <= hdu_9_0_1#139 <= 1
 0 <= hdu_9_0_2#140 <= 1
 0 <= hdu_10_0_0#141 <= 1
 0 <= hdu_10_0_1#142 <= 1
 0 <= hdu_10_0_2#143 <= 1
 0 <= hdu_11_0_0#144 <= 1
 0 <= hdu_11_0_1#145 <= 1
 0 <= hdu_11_0_2#146 <= 1
      z#147 Free
Binaries
 hap_1_0_0#5  han_2_0_0#8  hap_1_1_0#12  han_2_1_0#15  hap_1_2_0#19 
 han_2_2_0#22  hap_1_3_0#26  han_2_3_0#29  hap_1_4_0#33  han_2_4_0#36 
 hap_1_5_0#40  han_2_5_0#43  hap_1_6_0#47  han_2_6_0#50  hap_1_7_0#54 
 han_2_7_0#57  hap_1_8_0#61  han_2_8_0#64  hap_1_9_0#68  han_2_9_0#71 
 hap_1_10_0#75  han_2_10_0#78  hap_1_11_0#82  han_2_11_0#85  hb_0_0_1#87 
 hb_1_0_1#89  hb_2_0_1#91  hb_3_0_1#93  hb_4_0_1#95  hb_5_0_1#97  hb_6_0_1#99 
 hb_7_0_1#101  hb_8_0_1#103  hb_9_0_1#105  hb_10_0_1#107  hb_11_0_1#109 
 hdu_0_0_0#111  hdu_0_0_1#112  hdu_0_0_2#113  hdu_1_0_0#114  hdu_1_0_1#115 
 hdu_1_0_2#116  hdu_2_0_0#117  hdu_2_0_1#118  hdu_2_0_2#119  hdu_3_0_0#120 
 hdu_3_0_1#121  hdu_3_0_2#122  hdu_4_0_0#123  hdu_4_0_1#124  hdu_4_0_2#125 
 hdu_5_0_0#126  hdu_5_0_1#127  hdu_5_0_2#128  hdu_6_0_0#129  hdu_6_0_1#130 
 hdu_6_0_2#131  hdu_7_0_0#132  hdu_7_0_1#133  hdu_7_0_2#134  hdu_8_0_0#135 
 hdu_8_0_1#136  hdu_8_0_2#137  hdu_9_0_0#138  hdu_9_0_1#139  hdu_9_0_2#140 
 hdu_10_0_0#141  hdu_10_0_1#142  hdu_10_0_2#143  hdu_11_0_0#144 
 hdu_11_0_1#145  hdu_11_0_2#146 
End
